words_hard_train/6924.qaiger
aag 123 24 0 1 99
2
4
8
12
16
20
24
28
36
40
42
48
52
56
60
68
76
86
96
106
116
128
140
224
247
6 3 5
10 6 9
14 10 13
18 14 17
22 18 21
26 22 25
30 27 29
32 26 28
34 31 33
38 34 37
44 40 43
46 45 43
50 46 49
54 50 53
58 54 57
62 59 60
64 58 61
66 63 65
70 69 3
72 2 4
74 73 7
78 75 77
80 70 78
82 7 8
84 83 11
88 85 87
90 80 88
92 11 12
94 93 15
98 95 97
100 90 98
102 15 16
104 103 19
108 105 107
110 100 108
112 19 20
114 113 23
118 115 117
120 111 119
122 110 118
124 121 123
126 66 125
130 65 128
132 64 129
134 131 133
136 23 24
138 137 27
142 139 141
144 123 143
146 122 142
148 145 147
150 134 149
152 127 151
154 47 48
156 155 51
158 81 89
160 159 91
162 156 161
164 45 81
166 70 40
168 167 42
170 168 79
172 164 171
174 163 172
176 157 160
178 175 177
180 51 52
182 181 55
184 91 99
186 185 101
188 183 186
190 178 189
192 182 187
194 191 193
196 55 56
198 197 59
200 101 109
202 201 111
204 198 203
206 194 205
208 199 202
210 207 209
212 67 124
214 210 213
216 152 215
218 135 148
220 217 219
222 39 221
226 132 225
228 133 224
230 227 229
232 230 146
234 222 233
236 231 147
238 237 223
240 235 239
242 38 220
244 242 233
246 241 245
i0 1 x1[0]
i1 1 x1[1]
i2 1 x1[2]
i3 1 x1[3]
i4 1 x1[4]
i5 1 x1[5]
i6 1 x1[6]
i7 1 x1[7]
i8 2 y1[7]
i9 1 x2[0]
i10 1 x2[1]
i11 1 x2[2]
i12 1 x2[3]
i13 1 x2[4]
i14 1 x2[5]
i15 2 y1[0]
i16 2 y1[1]
i17 2 y1[2]
i18 2 y1[3]
i19 2 y1[4]
i20 2 y1[5]
i21 1 x2[6]
i22 2 y1[6]
i23 1 x2[7]
o0 bv[0]
c
simplified
  <
    subtract
      1 x2
      1
    or
      unary minus
        1 x1
      2 y1
