words_hard_train/6924.qaiger.qdimacs
p cnf 123 298
a 64 1 2 4 6 8 10 12 14 112 20 21 24 26 28 30 0
e 3 5 7 9 11 13 15 16 17 18 19 22 23 25 27 29 31 32 33 34 35 36 37 38 39 40 41 42 43 44 45 46 47 48 49 50 51 52 53 54 55 56 57 58 59 60 61 62 63 65 66 67 68 69 70 71 72 73 74 75 76 77 78 79 80 81 82 83 84 85 86 87 88 89 90 91 92 93 94 95 96 97 98 99 100 101 102 103 104 105 106 107 108 109 110 111 113 114 115 116 117 118 119 120 121 122 123 0
1 2 3 0
-1 -3 0
-2 -3 0
-3 4 5 0
3 -5 0
-4 -5 0
-5 6 7 0
5 -7 0
-6 -7 0
-7 8 9 0
7 -9 0
-8 -9 0
-9 10 11 0
9 -11 0
-10 -11 0
-11 12 13 0
11 -13 0
-12 -13 0
13 14 15 0
-13 -15 0
-14 -15 0
-13 -14 16 0
13 -16 0
14 -16 0
15 16 17 0
-15 -17 0
-16 -17 0
-17 18 19 0
17 -19 0
-18 -19 0
-20 21 22 0
20 -22 0
-21 -22 0
22 21 23 0
-22 -23 0
-21 -23 0
-23 24 25 0
23 -25 0
-24 -25 0
-25 26 27 0
25 -27 0
-26 -27 0
-27 28 29 0
27 -29 0
-28 -29 0
29 -30 31 0
-29 -31 0
30 -31 0
-29 30 32 0
29 -32 0
-30 -32 0
31 32 33 0
-31 -33 0
-32 -33 0
34 1 35 0
-34 -35 0
-1 -35 0
-1 -2 36 0
1 -36 0
2 -36 0
36 3 37 0
-36 -37 0
-3 -37 0
37 38 39 0
-37 -39 0
-38 -39 0
-35 -39 40 0
35 -40 0
39 -40 0
3 -4 41 0
-3 -41 0
4 -41 0
41 5 42 0
-41 -42 0
-5 -42 0
42 43 44 0
-42 -44 0
-43 -44 0
-40 -44 45 0
40 -45 0
44 -45 0
5 -6 46 0
-5 -46 0
6 -46 0
46 7 47 0
-46 -47 0
-7 -47 0
47 48 49 0
-47 -49 0
-48 -49 0
-45 -49 50 0
45 -50 0
49 -50 0
7 -8 51 0
-7 -51 0
8 -51 0
51 9 52 0
-51 -52 0
-9 -52 0
52 53 54 0
-52 -54 0
-53 -54 0
-50 -54 55 0
50 -55 0
54 -55 0
9 -10 56 0
-9 -56 0
10 -56 0
56 11 57 0
-56 -57 0
-11 -57 0
57 58 59 0
-57 -59 0
-58 -59 0
55 59 60 0
-55 -60 0
-59 -60 0
-55 -59 61 0
55 -61 0
59 -61 0
60 61 62 0
-60 -62 0
-61 -62 0
-33 62 63 0
33 -63 0
-62 -63 0
32 -64 65 0
-32 -65 0
64 -65 0
-32 64 66 0
32 -66 0
-64 -66 0
65 66 67 0
-65 -67 0
-66 -67 0
11 -12 68 0
-11 -68 0
12 -68 0
68 13 69 0
-68 -69 0
-13 -69 0
69 70 71 0
-69 -71 0
-70 -71 0
61 71 72 0
-61 -72 0
-71 -72 0
-61 -71 73 0
61 -73 0
71 -73 0
72 73 74 0
-72 -74 0
-73 -74 0
-67 74 75 0
67 -75 0
-74 -75 0
63 75 76 0
-63 -76 0
-75 -76 0
23 -24 77 0
-23 -77 0
24 -77 0
77 25 78 0
-77 -78 0
-25 -78 0
40 44 79 0
-40 -79 0
-44 -79 0
79 45 80 0
-79 -80 0
-45 -80 0
-78 80 81 0
78 -81 0
-80 -81 0
22 40 82 0
-22 -82 0
-40 -82 0
-35 -20 83 0
35 -83 0
20 -83 0
83 -21 84 0
-83 -84 0
21 -84 0
-84 39 85 0
84 -85 0
-39 -85 0
-82 85 86 0
82 -86 0
-85 -86 0
81 -86 87 0
-81 -87 0
86 -87 0
78 -80 88 0
-78 -88 0
80 -88 0
87 88 89 0
-87 -89 0
-88 -89 0
25 -26 90 0
-25 -90 0
26 -90 0
90 27 91 0
-90 -91 0
-27 -91 0
45 49 92 0
-45 -92 0
-49 -92 0
92 50 93 0
-92 -93 0
-50 -93 0
91 -93 94 0
-91 -94 0
93 -94 0
-89 94 95 0
89 -95 0
-94 -95 0
-91 93 96 0
91 -96 0
-93 -96 0
95 96 97 0
-95 -97 0
-96 -97 0
27 -28 98 0
-27 -98 0
28 -98 0
98 29 99 0
-98 -99 0
-29 -99 0
50 54 100 0
-50 -100 0
-54 -100 0
100 55 101 0
-100 -101 0
-55 -101 0
-99 101 102 0
99 -102 0
-101 -102 0
-97 102 103 0
97 -103 0
-102 -103 0
99 -101 104 0
-99 -104 0
101 -104 0
103 104 105 0
-103 -105 0
-104 -105 0
33 -62 106 0
-33 -106 0
62 -106 0
-105 106 107 0
105 -107 0
-106 -107 0
-76 107 108 0
76 -108 0
-107 -108 0
67 -74 109 0
-67 -109 0
74 -109 0
108 109 110 0
-108 -110 0
-109 -110 0
19 110 111 0
-19 -111 0
-110 -111 0
-66 112 113 0
66 -113 0
-112 -113 0
66 -112 114 0
-66 -114 0
112 -114 0
113 114 115 0
-113 -115 0
-114 -115 0
-115 -73 116 0
115 -116 0
73 -116 0
-111 116 117 0
111 -117 0
-116 -117 0
115 73 118 0
-115 -118 0
-73 -118 0
118 111 119 0
-118 -119 0
-111 -119 0
117 119 120 0
-117 -120 0
-119 -120 0
-19 -110 121 0
19 -121 0
110 -121 0
-121 116 122 0
121 -122 0
-116 -122 0
120 122 123 0
-120 -123 0
-122 -123 0
-123 0
